5522
0 1 0 0 0 1 1 0 0 1 0 0 0 0 1 0 0 1 0 0 1 0 1 0 1 0 0 0 1 0 
1 1 6 1 6 1 6 1 5 5 5 5 5 6 6 6 6 6 6 6 6 6 9 9 9 9 9 14 14 14 14 14 14 14 14 14 17 17 17 17 17 17 20 20 20 20 20 20 22 20 22 20 1 22 22 22 22 24 24 24 24 24 24 24 28 28 28 28 28 1 